#pLT is two-dimensional [i,r]=[component, individual]
#[i,*] means all data in row i.

param pLT := 
[1,*]
1  0    2  5    3  7    4  5    5  7    6  2    

[2,*]
1  2    2  5    3  3    4  5    5  2    6  4    
;